c This Formular was created for testing purposes
c
c    horn? no
c    forced? no
c    mixed sat? no
c    clause length = 3
c
p cnf
1	8	10
9	3	12
16	14	4
2	15	9
7	17	-10
20	11	16
5	-7	14
12	-10	19
18	6	7
-14	13	8
%
0
